2 198 38 96 19 118 11 137 25 164 70 157 177 136 179 194 185 167 10 128 61 99 123 91 40 109 36 170 126 117 82 79 129 190 138 4 197 57 131 13 172 183 59 47 90 93 130 22 110 150 46 174 27 175 141 188 81 135 39 76 28 186 77 103 100 88 48 32 18 60 145 49 15 1 152 134 142 148 29 121 84 21 72 69 161 5 133 158 37 171 122 184 113 102 0 75 42 68 16 195 64 132 160 30 87 66 50 24 162 156 107 159 20 73 67 9 12 33 139 105 85 26 149 125 80 111 71 189 14 193 63 166 55 44 192 35 191 97 155 104 173 17 51 116 120 62 86 31 176 180 168 101 53 3 45 83 147 199 8 153 124 140 74 146 182 165 58 89 7 52 65 6 56 143 92 54 98 115 144 119 178 169 106 163 181 151 187 154 94 112 114 41 23 196 34 78 108 127 43 95 

